python/vi3328_node2471.lp
\Problem name: compact

Minimize
OBJROW: C
Subject To
ord(0,1):  - x(0,1) + x(0,2) >= 7
ord(0,2):  x(0,0) - x(0,2) >= 7
ord(1,1):  x(1,0) - x(1,1) >= 4
ord(1,2):  - x(1,0) + x(1,2) >= 3
ord(2,1):  - x(2,1) + x(2,2) >= 7
ord(2,2):  x(2,0) - x(2,2) >= 6
triangle2(0,2,0):  y(0,2,0) + y(2,0,0) = 1
triangle2(0,2,1):  y(0,2,1) + y(2,0,1) = 1
triangle2(0,2,2):  y(0,2,2) + y(2,0,2) = 1
triangle2(1,2,0):  y(1,2,0) + y(2,1,0) = 1
triangle2(1,2,2):  y(1,2,2) + y(2,1,2) = 1
MCLinV(0,1,0):  x(0,0) - v(0,1,0) = -1
MCLinV(1,0,0):  - v(1,0,0) + x(1,0) = -3
MCLinV(0,1,1):  x(0,1) - v(0,1,1) = -7
MCLinV(1,0,1):  - v(1,0,1) + x(1,1) = -4
MCLinV(0,1,2):  x(0,2) - v(0,1,2) = -7
MCLinV(1,0,2):  - v(1,0,2) + x(1,2) = -7
MCLinV(0,2,0):  x(0,0) - v(0,2,0) = -1
MCLinV(2,0,0):  - v(2,0,0) + x(2,0) = -2
MCLin1(0,2,0):  u(0,2,0) >= 0
MCLin2(0,2,0):  15 y(0,2,0) - u(0,2,0) <= 0
MCLin3(0,2,0):  42 y(0,2,0) + v(0,2,0) - u(0,2,0) <= 42
MCLin4(0,2,0):  42 y(0,2,0) - u(0,2,0) >= 0
MCLin5(0,2,0):  15 y(0,2,0) + v(0,2,0) - u(0,2,0) >= 15
MCLin6(2,0,0):  u(2,0,0) >= 0
MCLin7(2,0,0):  15 y(2,0,0) - u(2,0,0) <= 0
MCLin8(2,0,0):  43 y(2,0,0) + v(2,0,0) - u(2,0,0) <= 43
MCLin9(2,0,0):  -43 y(0,2,0) + u(2,0,0) <= 43
MCLin10(2,0,0):  15 y(0,2,0) - v(2,0,0) + u(2,0,0) <= 0
MCLinV(0,2,1):  x(0,1) - v(0,2,1) = -7
MCLinV(2,0,1):  - v(2,0,1) + x(2,1) = -7
MCLin1(0,2,1):  u(0,2,1) >= 0
MCLin2(0,2,1):  7 y(0,2,1) - u(0,2,1) <= 0
MCLin3(0,2,1):  29 y(0,2,1) + v(0,2,1) - u(0,2,1) <= 29
MCLin4(0,2,1):  29 y(0,2,1) - u(0,2,1) >= 0
MCLin5(0,2,1):  7 y(0,2,1) + v(0,2,1) - u(0,2,1) >= 7
MCLin6(2,0,1):  u(2,0,1) >= 0
MCLin7(2,0,1):  7 y(2,0,1) - u(2,0,1) <= 0
MCLin8(2,0,1):  29 y(2,0,1) + v(2,0,1) - u(2,0,1) <= 29
MCLin9(2,0,1):  -29 y(0,2,1) + u(2,0,1) <= 29
MCLin10(2,0,1):  7 y(0,2,1) - v(2,0,1) + u(2,0,1) <= 0
MCLinV(0,2,2):  x(0,2) - v(0,2,2) = -7
MCLinV(2,0,2):  - v(2,0,2) + x(2,2) = -6
MCLin1(0,2,2):  u(0,2,2) >= 0
MCLin2(0,2,2):  14 y(0,2,2) - u(0,2,2) <= 0
MCLin3(0,2,2):  36 y(0,2,2) + v(0,2,2) - u(0,2,2) <= 36
MCLin4(0,2,2):  36 y(0,2,2) - u(0,2,2) >= 0
MCLin5(0,2,2):  14 y(0,2,2) + v(0,2,2) - u(0,2,2) >= 14
MCLin6(2,0,2):  u(2,0,2) >= 0
MCLin7(2,0,2):  13 y(2,0,2) - u(2,0,2) <= 0
MCLin8(2,0,2):  36 y(2,0,2) + v(2,0,2) - u(2,0,2) <= 36
MCLin9(2,0,2):  -36 y(0,2,2) + u(2,0,2) <= 36
MCLin10(2,0,2):  13 y(0,2,2) - v(2,0,2) + u(2,0,2) <= 0
MCLinV(1,2,0):  x(1,0) - v(1,2,0) = -3
MCLinV(2,1,0):  - v(2,1,0) + x(2,0) = -2
MCLin1(1,2,0):  u(1,2,0) >= 0
MCLin2(1,2,0):  7 y(1,2,0) - u(1,2,0) <= 0
MCLin3(1,2,0):  37 y(1,2,0) + v(1,2,0) - u(1,2,0) <= 37
MCLin4(1,2,0):  37 y(1,2,0) - u(1,2,0) >= 0
MCLin5(1,2,0):  7 y(1,2,0) + v(1,2,0) - u(1,2,0) >= 7
MCLin6(2,1,0):  u(2,1,0) >= 0
MCLin7(2,1,0):  15 y(2,1,0) - u(2,1,0) <= 0
MCLin8(2,1,0):  34 y(2,1,0) + v(2,1,0) - u(2,1,0) <= 34
MCLin9(2,1,0):  -34 y(1,2,0) + u(2,1,0) <= 34
MCLin10(2,1,0):  15 y(1,2,0) - v(2,1,0) + u(2,1,0) <= 0
MCLinV(1,2,1):  x(1,1) - v(1,2,1) = -4
MCLinV(2,1,1):  - v(2,1,1) + x(2,1) = -7
MCLin1(1,2,1):  u(1,2,1) >= 0
MCLin6(2,1,1):  u(2,1,1) >= 0
MCLin7(2,1,1):  7 y(2,1,1) - u(2,1,1) <= 0
MCLin8(2,1,1):  30 y(2,1,1) + v(2,1,1) - u(2,1,1) <= 30
MCLinV(1,2,2):  x(1,2) - v(1,2,2) = -7
MCLinV(2,1,2):  - v(2,1,2) + x(2,2) = -6
MCLin1(1,2,2):  u(1,2,2) >= 0
MCLin2(1,2,2):  14 y(1,2,2) - u(1,2,2) <= 0
MCLin3(1,2,2):  36 y(1,2,2) + v(1,2,2) - u(1,2,2) <= 36
MCLin4(1,2,2):  36 y(1,2,2) - u(1,2,2) >= 0
MCLin5(1,2,2):  14 y(1,2,2) + v(1,2,2) - u(1,2,2) >= 14
MCLin6(2,1,2):  u(2,1,2) >= 0
MCLin7(2,1,2):  13 y(2,1,2) - u(2,1,2) <= 0
MCLin8(2,1,2):  37 y(2,1,2) + v(2,1,2) - u(2,1,2) <= 37
MCLin9(2,1,2):  -37 y(1,2,2) + u(2,1,2) <= 37
MCLin10(2,1,2):  13 y(1,2,2) - v(2,1,2) + u(2,1,2) <= 0
makespan(0):  C - x(0,0) >= 1
makespan(1):  C - x(1,2) >= 7
makespan(2):  C - x(2,0) >= 2
cut_basic_best(02,0):  x(0,0) + 2 x(2,0) >= 41
cut_two_jobs(0,2,0):  2 x(0,0) + x(2,0) >= 43
cut_half_best(0,02,0):  x(0,0) -2 y(2,0,0) >= 13
cut_late_job_best(02,0,0,0):  x(0,0) - y(2,0,0) >= 14
cut_late_job_best(012,0,0,2):  x(0,0) -3 y(1,0,0) -2 y(2,0,0) + 9 y(1,2,0) >= 13
cut_basic_plus_epsilon_best(01,0,2):  x(0,0) + 3 x(1,0) + 36 y(1,2,0) >= 55
cut_basic_best(012,1):  7 x(0,1) + 4 x(1,1) + 7 x(2,1) >= 105
cut_half_best(1,012,1):  -7 y(0,1,1) + x(1,1) -7 y(2,1,1) >= 0
cut_late_job_best(012,1,1,0):  -7 y(0,1,1) + x(1,1) -7 y(2,1,1) >= 0
cut_late_job_best(012,1,1,1):  -7 y(0,1,1) + x(1,1) -7 y(2,1,1) >= 0
cut_late_job_best(012,1,1,2):  -7 y(0,1,1) + x(1,1) -7 y(2,1,1) >= 0
cut_basic_best(012,2):  7 x(0,2) + 7 x(1,2) + 6 x(2,2) >= 273
cut_half_best(1,012,2):  -7 y(0,1,2) + x(1,2) -6 y(2,1,2) >= 7
cut_basic_plus_epsilon_best(02,2,1):  7 x(0,2) + 6 x(2,2) >= 133
cut_late_job_best(012,2,1,0):  -7 y(0,1,2) + x(1,2) -6 y(2,1,2) >= 7
cut_late_job_best(012,2,1,1):  -7 y(0,1,2) + x(1,2) -6 y(2,1,2) >= 7
cut_late_job_best(012,2,1,2):  -7 y(0,1,2) + x(1,2) -6 y(2,1,2) >= 7
depth1(1,0,0):  x(0,0) - x(1,0) >= 3
depth2(0,1,2):  - x(0,2) + x(1,2) >= 7
depth3(0,1,1):  - x(0,1) + x(1,1) >= 7
MCLin1(0,1,0):  u(0,1,0) >= 0
MCLin6(1,0,0):  u(1,0,0) >= 0
MCLin7(1,0,0):  -23 y(1,0,0) + u(1,0,0) >= -23
MCLin1(0,1,1):  u(0,1,1) >= 0
MCLin6(1,0,1):  u(1,0,1) >= 0
MCLin2(0,1,1):  29 y(0,1,1) + u(0,1,1) >= 0
MCLin3(0,1,1):  -23 y(0,1,1) - v(0,1,1) + u(0,1,1) >= -23
MCLin4(0,1,1):  -23 y(0,1,1) + u(0,1,1) <= 0
MCLin5(0,1,1):  29 y(0,1,1) - v(0,1,1) + u(0,1,1) <= 29
MCLin8(1,0,1):  18 y(0,1,1) - v(1,0,1) + u(1,0,1) >= 0
MCLin9(1,0,1):  -18 y(0,1,1) + u(1,0,1) <= 18
MCLin10(1,0,1):  -34 y(0,1,1) - v(1,0,1) + u(1,0,1) <= 0
MCLin1(0,1,2):  u(0,1,2) >= 0
MCLin6(1,0,2):  u(1,0,2) >= 0
MCLin2(0,1,2):  29 y(0,1,2) + u(0,1,2) >= 0
MCLin3(0,1,2):  -23 y(0,1,2) - v(0,1,2) + u(0,1,2) >= -23
MCLin4(0,1,2):  -23 y(0,1,2) + u(0,1,2) <= 0
MCLin5(0,1,2):  29 y(0,1,2) - v(0,1,2) + u(0,1,2) <= 29
MCLin8(1,0,2):  15 y(0,1,2) - v(1,0,2) + u(1,0,2) >= 0
MCLin9(1,0,2):  -15 y(0,1,2) + u(1,0,2) <= 15
MCLin10(1,0,2):  -37 y(0,1,2) - v(1,0,2) + u(1,0,2) <= 0
depth4(2,1,1):  x(1,1) - x(2,1) >= 7
cut_two_jobs(1,2,0):  -6 x(1,0) + 11 x(2,0) >= 53
Bounds
 0 <= C <= 44
 14 <= x(0,0) <= 43
 1 <= y(1,0,0) <= 1
 15 <= v(0,1,0) <= 34
 7 <= v(1,0,0) <= 37
 -440 <= u(0,1,0)
 -440 <= u(1,0,0)
 0 <= y(0,2,0) <= 1
 0 <= y(2,0,0) <= 1
 15 <= v(0,2,0) <= 42
 15 <= v(2,0,0) <= 43
 -440 <= u(0,2,0)
 -440 <= u(2,0,0)
 11 <= x(1,0) <= 34
 0 <= y(1,2,0) <= 1
 0 <= y(2,1,0) <= 1
 7 <= v(1,2,0) <= 37
 15 <= v(2,1,0) <= 34
 -440 <= u(1,2,0)
 -440 <= u(2,1,0)
 13 <= x(2,0) <= 42
 0 <= x(0,1) <= 29
 1 <= y(0,1,1) <= 1
 7 <= v(0,1,1) <= 30
 4 <= v(1,0,1) <= 29
 -440 <= u(0,1,1)
 -440 <= u(1,0,1)
 0 <= y(0,2,1) <= 1
 0 <= y(2,0,1) <= 1
 7 <= v(0,2,1) <= 29
 7 <= v(2,0,1) <= 29
 -440 <= u(0,2,1)
 -440 <= u(2,0,1)
 7 <= x(1,1) <= 30
 1 <= y(2,1,1) <= 1
 4 <= v(1,2,1) <= 29
 7 <= v(2,1,1) <= 30
 -440 <= u(1,2,1)
 -440 <= u(2,1,1)
 0 <= x(2,1) <= 29
 7 <= x(0,2) <= 36
 1 <= y(0,1,2) <= 1
 14 <= v(0,1,2) <= 37
 14 <= v(1,0,2) <= 36
 -440 <= u(0,1,2)
 -440 <= u(1,0,2)
 0 <= y(0,2,2) <= 1
 0 <= y(2,0,2) <= 1
 14 <= v(0,2,2) <= 36
 13 <= v(2,0,2) <= 36
 -440 <= u(0,2,2)
 -440 <= u(2,0,2)
 14 <= x(1,2) <= 37
 0 <= y(1,2,2) <= 1
 0 <= y(2,1,2) <= 1
 14 <= v(1,2,2) <= 36
 13 <= v(2,1,2) <= 37
 -440 <= u(1,2,2)
 -440 <= u(2,1,2)
 7 <= x(2,2) <= 36
End
