python/vi3328_node2471.sol
Feasible solution - objective 0.0
0 C 27.999999999999996 1.0
1 x(0,0) 21.000000000000004 0.0
2 y(1,0,0) 1.0 0.0
3 v(0,1,0) 22.000000000000004 0.0
4 v(1,0,0) 21.0 0.0
5 y(2,0,0) 1.0 0.0
6 v(0,2,0) 22.000000000000004 0.0
7 v(2,0,0) 14.999999999999998 0.0
8 u(2,0,0) 15.000000000000002 0.0
9 x(1,0) 18.0 0.0
10 y(2,1,0) 1.0 0.0
11 v(1,2,0) 21.0 0.0
12 v(2,1,0) 14.999999999999998 0.0
13 u(2,1,0) 14.999999999999998 0.0
14 x(2,0) 12.999999999999998 0.0
15 x(0,1) 7.000000000000002 0.0
16 y(0,1,1) 1.0 0.0
17 v(0,1,1) 14.000000000000002 0.0
18 v(1,0,1) 18.0 0.0
19 u(0,1,1) 14.0 0.0
20 u(1,0,1) 36.0 0.0
21 y(2,0,1) 1.0 0.0
22 v(0,2,1) 14.000000000000002 0.0
23 v(2,0,1) 7.000000000000001 0.0
24 u(2,0,1) 6.999999999999999 0.0
25 x(1,1) 14.0 0.0
26 y(2,1,1) 1.0 0.0
27 v(1,2,1) 18.0 0.0
28 v(2,1,1) 7.000000000000001 0.0
29 u(2,1,1) 7.000000000000001 0.0
30 x(0,2) 13.999999999999996 0.0
31 y(0,1,2) 1.0 0.0
32 v(0,1,2) 20.999999999999996 0.0
33 v(1,0,2) 28.0 0.0
34 u(0,1,2) 20.999999999999996 0.0
35 u(1,0,2) 30.0 0.0
36 y(2,0,2) 1.0 0.0
37 v(0,2,2) 20.999999999999996 0.0
38 v(2,0,2) 13.0 0.0
39 u(2,0,2) 13.000000000000002 0.0
40 x(1,2) 21.0 0.0
41 y(2,1,2) 1.0 0.0
42 v(1,2,2) 28.0 0.0
43 v(2,1,2) 13.0 0.0
44 u(2,1,2) 13.0 0.0
45 x(2,2) 7.0 0.0
